(assert (forall ((pkt_0_6_8_0  Int  )(pkt_1_7_9_0  Int  )(state_group_0_state_0_8_a_0  Int  )(state_group_1_state_0_9_b_0  Int  )(state_group_2_state_0_a_c_0  Int  )) (let ((_n0 30 ))
(let ((_n1 pkt_1_7_9_0 ))
(let ((_n2 (<   _n1   _n0 ) ))
(let ((_n3 state_group_1_state_0_9_b_0 ))
(let ((_n4 (+   _n3   _n1 ) ))
(let ((_n5 (ite  _n2   _n4   _n3  ) ))
(let ((_n6 (-  _n1 )))
(let ((_n7 29 ))
(let ((_n8 (+   _n7   _n6 ) ))
(let ((_n9 false ))
(let ((_n10 (ite (=  _n6  (- 29))  _n1   (ite  _n9  1 0)  ) ))
(let ((_n11 (ite (=  _n6  (- 29))  _n10   _n8  ) ))
(let ((_n12 (<   _n3   _n11 ) ))
(let ((_n13 (ite  _n12   _n1   (ite  _n9  1 0)  ) ))
(let ((_n14 (+   _n3   _n13 ) ))
(let ((_n15 (ite (=  (ite  _n12  1 0)  1)  _n14   _n3  ) ))
(let ((_n16 (=   _n15   _n5 ) ))
(let ((_n18 state_group_2_state_0_a_c_0 ))
(let ((_n19 true ))
(let ((_n20 (+   _n18   (ite  _n19  1 0) ) ))
(let ((_n21 (ite  _n2   _n20   _n18  ) ))
(let ((_n22 (<   (ite  _n9  1 0)   _n11 ) ))
(let ((_n23 (+   _n18   (ite  _n22  1 0) ) ))
(let ((_n24 (ite (=  (ite  _n22  1 0)  1)  _n23   _n18  ) ))
(let ((_n25 (=   _n24   _n21 ) ))
(let ((_n27 pkt_0_6_8_0 ))
(let ((_n28 (=   _n11   (ite  _n9  1 0) ) ))
(let ((_n29 (not  _n28 ) ))
(let ((_n30 (ite (=  _n11  0)  (ite  _n9  1 0)   _n27  ) ))
(let ((_n31 (ite (=  (ite  _n29  1 0)  1)  _n30   (ite  _n9  1 0)  ) ))
(let ((_n32 (=   _n31   _n27 ) ))
(let ((_n34 (ite (=  _n1  0)  _n1   (ite  _n9  1 0)  ) ))
(let ((_n35 (ite (=  _n1  0)  _n34   _n1  ) ))
(let ((_n36 (=   _n35   _n1 ) ))
(let ((_n38 state_group_0_state_0_8_a_0 ))
(implies  (and (and (>= state_group_2_state_0_a_c_0 0) (< state_group_2_state_0_a_c_0 1024 ))  (and (and (>= state_group_1_state_0_9_b_0 0) (< state_group_1_state_0_9_b_0 1024 ))  (and (and (>= state_group_0_state_0_8_a_0 0) (< state_group_0_state_0_8_a_0 1024 ))  (and (and (>= pkt_1_7_9_0 0) (< pkt_1_7_9_0 1024 ))  (and (>= pkt_0_6_8_0 0) (< pkt_0_6_8_0 1024 )) ) ) ) )   (and  _n16  _n25  _n32  _n36 )  ))))))))))))))))))))))))))))))))))))))
(check-sat)
(get-model)
(exit)